num_features = 25;
num_usage_limits = 15;
num_plans = 5;
num_addons = 12;

features = ["apiClient", "collections", "publicApiDocumentation", "privateApiDocumentation", "personalWorkspaces", "teamWorkspaces", "publicWorkspaces", "privateWorkspaces", "partnerWorkspaces", "postmanApi", "thirdPartyIntegrations", "customDomains", "collectionRunner", "localPerformanceTesting", "monitoringCalls", "mockServersCalls", "apiGovernance", "privateApiNetwork", "apiBuilder", "nativeGitSupport", "rolesAndPermissions", "singleSignOn", "userProvisioning", "userGroups", "domainCapture"];
usage_limits = ["callsToPostmanApi", "numberOfIntegrations", "collectionViewers", "customDomainsLimit", "localCollectionRunnerLimit", "localPerformanceTestingUserLimit", "localPerformanceTestingRunsLimit", "monitoringCallsLimit", "mockServersCallsLimit", "collectionRecoveryLimit", "historyDepth", "flowSteps", "flowsPayloadSize", "postmanFlowsBasic_flowSteps", "postmanFlowsProfessional_flowSteps"];
plans = ["BASIC", "PROFESSIONAL", "ENTERPRISE_ESSENTIALS", "ENTERPRISE_ULTIMATE", "Contact Sales"];
addons = ["postmanForInternalApiManagement", "postmanForApiTestAutomation", "monitoringPayAsYouGo", "monitoringMonthly", "mockServersPayAsYouGo", "mockServersMonthly", "customDomains", "postmanFlowsBasic", "postmanFlowsProfessional", "postbot", "postmanFlowsBasic_flowSteps", "postmanFlowsProfessional_flowSteps"];

plans_prices = [19.0,39.0,49.0,10000000.0,10000000.0];
addons_prices = [49.0,49.0,0.75,20.0,0.75,20.0,10.0,15.0,25.0,9.0,15.0,25.0];

plans_features = array2d(PLANS, FEATURES, [
    % BASIC
    1,1,1,1,1,1,1,0,0,1,1,1,1,1,1,1,0,0,0,0,0,0,0,0,0,
    % PROFESSIONAL
    1,1,1,1,1,1,1,1,0,1,1,1,1,1,1,1,0,0,0,0,1,1,0,0,0,
    % ENTERPRISE_ESSENTIALS
    1,1,1,1,1,1,1,1,0,1,1,1,1,0,1,1,1,0,0,1,1,1,1,1,0,
    % ENTERPRISE_ULTIMATE
    1,1,1,1,1,1,1,1,1,1,1,1,1,0,1,1,1,1,1,1,1,1,1,1,1,
    % Contact Sales
    1,1,1,1,1,1,1,1,1,1,1,1,1,0,1,1,1,1,1,1,1,1,1,1,1
]);
plans_usage_limits = array2d(PLANS, USAGE_LIMITS, [
    % BASIC
    10000,10,10,1,25,100,25,1000,1000,30,1,0,0,0,0,
    % PROFESSIONAL
    100000,50,25,5,250,500,250,10000,10000,90,1,0,0,0,0,
    % ENTERPRISE_ESSENTIALS
    1000000,50,0,25,250,0,0,10000,10000,90,14,0,0,0,0,
    % ENTERPRISE_ULTIMATE
    1000000,100,0,25,10000000,0,0,100000,100000,90,14,0,0,0,0,
    % Contact Sales
    1000000,100,0,25,10000000,0,0,100000,100000,90,14,0,0,0,0
]);

linked_features = array2d(USAGE_LIMITS, FEATURES, [
    % callsToPostmanApi
    1,0,0,0,0,0,0,0,0,1,0,0,0,0,0,0,0,0,0,0,0,0,0,0,0,
    % numberOfIntegrations
    0,0,0,0,0,0,0,0,0,0,1,0,0,0,0,0,0,0,0,0,0,0,0,0,0,
    % collectionViewers
    0,1,0,0,0,0,0,0,0,0,0,0,0,0,0,0,0,0,0,0,0,0,0,0,0,
    % customDomainsLimit
    0,0,0,0,0,0,0,0,0,0,0,1,0,0,0,0,0,0,0,0,0,0,0,0,0,
    % localCollectionRunnerLimit
    0,0,0,0,0,0,0,0,0,0,0,0,1,0,0,0,0,0,0,0,0,0,0,0,0,
    % localPerformanceTestingUserLimit
    0,0,0,0,0,0,0,0,0,0,0,0,0,1,0,0,0,0,0,0,0,0,0,0,0,
    % localPerformanceTestingRunsLimit
    0,0,0,0,0,0,0,0,0,0,0,0,0,1,0,0,0,0,0,0,0,0,0,0,0,
    % monitoringCallsLimit
    0,0,1,0,0,0,0,0,0,0,0,0,0,0,1,0,0,0,0,0,0,0,0,0,0,
    % mockServersCallsLimit
    0,0,0,1,0,0,0,0,0,0,0,0,0,0,0,1,0,0,0,0,0,0,0,0,0,
    % collectionRecoveryLimit
    0,0,0,0,0,0,0,0,0,0,0,0,0,0,0,0,0,0,0,0,0,0,0,0,1,
    % historyDepth
    0,0,0,0,0,0,0,0,0,0,0,0,0,0,0,0,0,0,0,0,0,0,0,0,0,
    % flowSteps
    0,0,0,0,0,0,0,0,0,0,0,0,0,0,0,0,0,0,0,0,0,0,0,0,0,
    % flowsPayloadSize
    0,0,0,0,0,0,0,0,0,0,0,0,0,0,0,0,0,0,0,0,0,0,0,0,0,
    % postmanFlowsBasic_flowSteps
    0,0,0,0,0,0,0,0,0,0,0,0,0,0,0,0,0,0,0,0,0,0,0,0,0,
    % postmanFlowsProfessional_flowSteps
    0,0,0,0,0,0,0,0,0,0,0,0,0,0,0,0,0,0,0,0,0,0,0,0,0
]);

addons_features = array2d(ADDONS, FEATURES, [
    % postmanForInternalApiManagement
    0,0,0,0,0,0,0,0,0,0,0,1,0,0,0,0,1,1,1,0,0,0,0,0,0,
    % postmanForApiTestAutomation
    0,0,0,0,0,0,0,0,0,0,1,0,0,0,0,0,0,0,0,0,0,0,0,0,0,
    % monitoringPayAsYouGo
    0,0,0,0,0,0,0,0,0,0,0,0,0,0,1,0,0,0,0,0,0,0,0,0,0,
    % monitoringMonthly
    0,0,0,0,0,0,0,0,0,0,0,0,0,0,1,0,0,0,0,0,0,0,0,0,0,
    % mockServersPayAsYouGo
    0,0,0,0,0,0,0,0,0,0,0,0,0,0,0,1,0,0,0,0,0,0,0,0,0,
    % mockServersMonthly
    0,0,0,0,0,0,0,0,0,0,0,0,0,0,0,1,0,0,0,0,0,0,0,0,0,
    % customDomains
    0,0,0,0,0,0,0,0,0,0,0,1,0,0,0,0,0,0,0,0,0,0,0,0,0,
    % postmanFlowsBasic
    0,0,0,0,0,0,0,0,0,0,0,0,0,0,0,0,0,0,0,0,0,0,0,0,0,
    % postmanFlowsProfessional
    0,0,0,0,0,0,0,0,0,0,0,0,0,0,0,0,0,0,0,0,0,0,0,0,0,
    % postbot
    0,0,0,0,0,0,0,0,0,0,0,0,0,0,0,0,0,0,0,0,0,0,0,0,0,
    % postmanFlowsBasic_flowSteps
    0,0,0,0,0,0,0,0,0,0,0,0,0,0,0,0,0,0,0,0,0,0,0,0,0,
    % postmanFlowsProfessional_flowSteps
    0,0,0,0,0,0,0,0,0,0,0,0,0,0,0,0,0,0,0,0,0,0,0,0,0
]);
addons_usage_limits = array2d(ADDONS, USAGE_LIMITS, [
    % postmanForInternalApiManagement
    0,0,0,0,0,0,0,0,0,0,0,0,0,0,0,
    % postmanForApiTestAutomation
    0,0,0,0,10000000,0,0,0,0,0,0,0,0,0,0,
    % monitoringPayAsYouGo
    0,0,0,0,0,0,0,1000,0,0,0,0,0,0,0,
    % monitoringMonthly
    0,0,0,0,0,0,0,50000,0,0,0,0,0,0,0,
    % mockServersPayAsYouGo
    0,0,0,0,0,0,0,0,1000,0,0,0,0,0,0,
    % mockServersMonthly
    0,0,0,0,0,0,0,0,50000,0,0,0,0,0,0,
    % customDomains
    0,0,0,1,0,0,0,0,0,0,0,0,0,0,0,
    % postmanFlowsBasic
    0,0,0,0,0,0,0,0,0,0,0,25000,1,0,0,
    % postmanFlowsProfessional
    0,0,0,0,0,0,0,0,0,0,0,100000,5,0,0,
    % postbot
    0,0,0,0,0,0,0,0,0,0,0,0,0,0,0,
    % postmanFlowsBasic_flowSteps
    0,0,0,0,0,0,0,0,0,0,0,25000,0,0,0,
    % postmanFlowsProfessional_flowSteps
    0,0,0,0,0,0,0,0,0,0,0,100000,0,0,0
]);
addons_usage_limits_extensions = array2d(ADDONS, USAGE_LIMITS, [
    % postmanForInternalApiManagement
    0,0,0,0,0,0,0,0,0,0,0,0,0,0,0,
    % postmanForApiTestAutomation
    0,0,0,0,10000000,0,0,0,0,0,0,0,0,0,0,
    % monitoringPayAsYouGo
    0,0,0,0,0,0,0,1000,0,0,0,0,0,0,0,
    % monitoringMonthly
    0,0,0,0,0,0,0,50000,0,0,0,0,0,0,0,
    % mockServersPayAsYouGo
    0,0,0,0,0,0,0,0,1000,0,0,0,0,0,0,
    % mockServersMonthly
    0,0,0,0,0,0,0,0,50000,0,0,0,0,0,0,
    % customDomains
    0,0,0,1,0,0,0,0,0,0,0,0,0,0,0,
    % postmanFlowsBasic
    0,0,0,0,0,0,0,0,0,0,0,0,0,0,0,
    % postmanFlowsProfessional
    0,0,0,0,0,0,0,0,0,0,0,0,0,0,0,
    % postbot
    0,0,0,0,0,0,0,0,0,0,0,0,0,0,0,
    % postmanFlowsBasic_flowSteps
    0,0,0,0,0,0,0,0,0,0,0,0,0,25000,0,
    % postmanFlowsProfessional_flowSteps
    0,0,0,0,0,0,0,0,0,0,0,0,0,100000,0
]);
addons_available_for = array2d(ADDONS, PLANS, [
    % postmanForInternalApiManagement
    0,0,1,1,0,
    % postmanForApiTestAutomation
    0,0,1,1,0,
    % monitoringPayAsYouGo
    1,1,1,1,0,
    % monitoringMonthly
    1,1,1,1,0,
    % mockServersPayAsYouGo
    1,1,1,1,0,
    % mockServersMonthly
    1,1,1,1,0,
    % customDomains
    1,1,1,1,0,
    % postmanFlowsBasic
    1,1,1,1,0,
    % postmanFlowsProfessional
    1,1,1,1,0,
    % postbot
    1,1,1,1,0,
    % postmanFlowsBasic_flowSteps
    1,1,1,1,0,
    % postmanFlowsProfessional_flowSteps
    1,1,1,1,0
]);

addons_depends_on = array2d(ADDONS, ADDONS, [
    % postmanForInternalApiManagement
    0,0,0,0,0,0,0,0,0,0,0,0,0,0,0,0,0,0,0,0,0,0,
    % postmanForApiTestAutomation
    0,0,0,0,0,0,0,0,0,0,0,0,0,0,0,0,0,0,0,0,0,0,
    % monitoringPayAsYouGo
    0,0,0,0,0,0,0,0,0,0,0,0,0,0,0,0,0,0,0,0,0,0,
    % monitoringMonthly
    0,0,0,0,0,0,0,0,0,0,0,0,0,0,0,0,0,0,0,0,0,0,
    % mockServersPayAsYouGo
    0,0,0,0,0,0,0,0,0,0,0,0,0,0,0,0,0,0,0,0,0,0,
    % mockServersMonthly
    0,0,0,0,0,0,0,0,0,0,0,0,0,0,0,0,0,0,0,0,0,0,
    % customDomains
    0,0,0,0,0,0,0,0,0,0,0,0,0,0,0,0,0,0,0,0,0,0,
    % postmanFlowsBasic
    0,0,0,0,0,0,0,0,0,0,0,0,0,0,0,0,0,0,0,0,0,0,
    % postmanFlowsProfessional
    0,0,0,0,0,0,0,0,0,0,0,0,0,0,0,0,0,0,0,0,0,0,
    % postbot
    0,0,0,0,0,0,0,0,0,0,0,0,0,0,0,0,0,0,0,0,0,0,
    % postmanFlowsBasic_flowSteps
    0,0,0,0,0,0,0,0,0,0,0,0,0,0,0,0,0,0,0,0,0,0,
    % postmanFlowsProfessional_flowSteps
    0,0,0,0,0,0,0,0,0,0,0,0,0,0,0,0,0,0,0,0,0,0
]);